
  32    1
  10

   0   0  10 2 3 5 6 7 8 9 10 15 18 
   5   1   5 16 14 12 11 4 
   2   1  12 31 30 29 28 27 26 25 24 23 16 13 11 
   8   4  10 29 28 27 26 25 24 23 21 20 13 
   5   2   8 30 28 24 21 20 17 16 13 
   6   2   8 29 25 23 22 21 17 16 14 
   2   2   6 27 25 24 21 20 13 
   8   1   4 23 16 13 11 
   7   1   5 24 23 17 16 14 
  10   3   2 22 11 
   1   2   3 21 20 19 
   1   1   3 24 23 19 
   5   3   2 22 19 
   9   3   2 20 19 
   5   3   2 22 21 
   6   3   1 19 
   7   3   1 19 
  10   2   1 26 
   9   1   1 32
   2   3   1 32
   5   1   1 32
  10   2   1 32
   6   1   1 32
   2   3   1 32
   8   2   1 32
   2   1   1 32
   7   1   1 32
   7   2   1 32
   8   2   1 32
   5   1   1 32
   9   3   1 32
   0   0   0 
